Minimize
  - 22 y_0 - 32 y_1 - 25 y_2 - 9 y_3 - 16 y_4 - 22 y_5 - 33 y_6 - 12 y_7
   - 35 y_8 - 20 y_9 - 26 y_10 - 21 y_11 - 26 y_12 - 29 y_13 - 16 y_14
   - 32 y_15 - 25 y_16 - 21 y_17 - 13 y_18 + 435 Constant
Subject To
 c_0: y_0 = 1
 c_1_0: y_0 + y_10 >= 1
 c_1_1: y_1 + y_12 + y_13 + y_15 >= 1
 c_1_2: y_2 >= 1
 c_1_3: y_3 + y_4 + y_19 >= 1
 c_1_4: y_3 + y_4 + y_7 + y_11 >= 1
 c_1_5: y_5 + y_16 + y_18 >= 1
 c_1_6: y_6 + y_8 + y_15 >= 1
 c_1_7: y_4 + y_7 + y_17 >= 1
 c_1_8: y_6 + y_8 + y_15 >= 1
 c_1_9: y_9 + y_14 >= 1
 c_1_10: y_0 + y_10 >= 1
 c_1_11: y_4 + y_11 >= 1
 c_1_12: y_1 + y_12 + y_13 + y_15 >= 1
 c_1_13: y_1 + y_12 + y_13 >= 1
 c_1_14: y_9 + y_14 >= 1
 c_1_15: y_1 + y_6 + y_8 + y_12 + y_15 >= 1
 c_1_16: y_5 + y_16 >= 1
 c_1_17: y_7 + y_17 >= 1
 c_1_18: y_5 + y_18 >= 1
 c_1_19: y_3 + y_19 >= 1
Bounds
 Constant = 1
Binaries
 y_0 y_1 y_2 y_3 y_4 y_5 y_6 y_7 y_8 y_9 y_10 y_11 y_12 y_13 y_14 y_15 y_16
 y_17 y_18 y_19
End
